0, 2009, 1694.28, 1463
1, 1859, 1629.72, 1428
2, 1756, 1565.67, 1377
3, 1757, 1504.29, 1318
4, 1861, 1469.6, 1284
5, 1734, 1434.35, 1264
6, 1641, 1385.05, 1242
7, 1606, 1366.53, 1199
8, 1639, 1328.47, 1176
9, 1628, 1291.08, 1128
